(set-logic QF_S)
(declare-fun var0 () String)
(assert (str.in.re var0 (re.++ (re.* (re.+ (str.to.re "00"))) (re.++ (re.union (re.+ (str.to.re "1")) (re.+ (str.to.re "2"))) (re.++ (re.union (re.union (str.to.re "33") (str.to.re "444")) (re.union (str.to.re "55") (str.to.re "666"))) (re.++ (re.* (re.+ (str.to.re "77"))) (re.++ (re.union (re.* (str.to.re "888")) (re.* (str.to.re "9"))) (re.++ (re.+ (re.* (str.to.re "a"))) (re.++ (re.* (re.union (str.to.re "bb") (str.to.re "c"))) (re.++ (re.union (re.* (str.to.re "ddd")) (re.* (str.to.re "eee"))) (re.++ (re.* (re.+ (str.to.re "f"))) (re.++ (re.* (re.* (str.to.re "ggg"))) (re.++ (re.union (re.* (str.to.re "hh")) (re.* (str.to.re "iii"))) (re.++ (re.union (re.* (str.to.re "j")) (re.* (str.to.re "kkk"))) (re.++ (re.+ (re.+ (str.to.re "lll"))) (re.++ (re.union (re.* (str.to.re "m")) (re.* (str.to.re "nnn"))) (re.++ (re.+ (re.* (str.to.re "o"))) (re.++ (re.+ (re.* (str.to.re "p"))) (re.++ (re.* (re.* (str.to.re "qqq"))) (re.++ (re.union (re.* (str.to.re "r")) (re.* (str.to.re "s"))) (re.++ (re.* (re.* (str.to.re "t"))) (re.++ (re.+ (re.union (str.to.re "u") (str.to.re "vv"))) (re.++ (re.* (re.+ (str.to.re "w"))) (re.++ (re.* (re.* (str.to.re "x"))) (re.++ (re.* (re.+ (str.to.re "yyy"))) (re.++ (re.* (re.union (str.to.re "z") (str.to.re "A"))) (re.++ (re.union (re.* (str.to.re "BB")) (re.* (str.to.re "C"))) (re.++ (re.union (re.+ (str.to.re "D")) (re.+ (str.to.re "E"))) (re.++ (re.* (re.union (str.to.re "FFF") (str.to.re "GG"))) (re.++ (re.union (re.union (str.to.re "HH") (str.to.re "II")) (re.union (str.to.re "JJ") (str.to.re "K"))) (re.++ (re.* (re.+ (str.to.re "L"))) (re.++ (re.union (re.union (str.to.re "MMM") (str.to.re "N")) (re.union (str.to.re "OOO") (str.to.re "P"))) (re.++ (re.+ (re.union (str.to.re "QQQ") (str.to.re "RRR"))) (re.++ (re.union (re.+ (str.to.re "SS")) (re.+ (str.to.re "TTT"))) (re.++ (re.union (re.+ (str.to.re "U")) (re.+ (str.to.re "VV"))) (re.++ (re.union (re.* (str.to.re "W")) (re.* (str.to.re "XXX"))) (re.++ (re.union (re.* (str.to.re "Y")) (re.* (str.to.re "ZZ"))) (re.++ (re.union (re.union (str.to.re "!") (str.to.re """")) (re.union (str.to.re "##") (str.to.re "$$"))) (re.++ (re.* (re.+ (str.to.re "%%"))) (re.++ (re.* (re.union (str.to.re "&&") (str.to.re "'"))) (re.++ (re.+ (re.+ (str.to.re "("))) (re.++ (re.* (re.+ (str.to.re ")"))) (re.++ (re.union (re.+ (str.to.re "**")) (re.+ (str.to.re "+++"))) (re.++ (re.union (re.+ (str.to.re ",,")) (re.+ (str.to.re "-"))) (re.++ (re.+ (re.* (str.to.re "."))) (re.++ (re.union (re.+ (str.to.re "/")) (re.+ (str.to.re "::"))) (re.++ (re.union (re.+ (str.to.re ";")) (re.+ (str.to.re "<"))) (re.++ (re.union (re.union (str.to.re "===") (str.to.re ">>>")) (re.union (str.to.re "?") (str.to.re "@"))) (re.++ (re.+ (re.+ (str.to.re "[[["))) (re.++ (re.* (re.+ (str.to.re "\\\\"))) (re.++ (re.* (re.* (str.to.re "]]"))) (re.++ (re.+ (re.* (str.to.re "^^"))) (re.++ (re.+ (re.+ (str.to.re "___"))) (re.++ (re.+ (re.union (str.to.re "```") (str.to.re "{{"))) (re.++ (re.+ (re.* (str.to.re "|||"))) (re.++ (re.union (re.* (str.to.re "}}}")) (re.* (str.to.re "~"))) (re.++ (re.* (re.* (str.to.re "0"))) (re.++ (re.union (re.* (str.to.re "111")) (re.* (str.to.re "2"))) (re.++ (re.union (re.+ (str.to.re "33")) (re.+ (str.to.re "44"))) (re.++ (re.* (re.union (str.to.re "555") (str.to.re "6"))) (re.++ (re.+ (re.union (str.to.re "77") (str.to.re "888"))) (re.++ (re.+ (re.* (str.to.re "99"))) (re.+ (re.* (str.to.re "a")))))))))))))))))))))))))))))))))))))))))))))))))))))))))))))))))
(assert (not (str.in.re var0 (re.++ (re.+ (re.* (str.to.re "0"))) (re.++ (re.+ (re.* (str.to.re "11"))) (re.++ (re.union (re.union (str.to.re "22") (str.to.re "33")) (re.union (str.to.re "4") (str.to.re "555"))) (re.++ (re.+ (re.+ (str.to.re "666"))) (re.++ (re.+ (re.* (str.to.re "777"))) (re.++ (re.+ (re.union (str.to.re "888") (str.to.re "9"))) (re.++ (re.* (re.* (str.to.re "aa"))) (re.++ (re.* (re.union (str.to.re "bbb") (str.to.re "cc"))) (re.++ (re.union (re.union (str.to.re "dd") (str.to.re "eee")) (re.union (str.to.re "fff") (str.to.re "gg"))) (re.++ (re.* (re.union (str.to.re "hh") (str.to.re "i"))) (re.++ (re.* (re.* (str.to.re "jj"))) (re.++ (re.+ (re.* (str.to.re "kk"))) (re.++ (re.union (re.union (str.to.re "l") (str.to.re "m")) (re.union (str.to.re "nn") (str.to.re "ooo"))) (re.++ (re.* (re.* (str.to.re "pp"))) (re.++ (re.* (re.union (str.to.re "q") (str.to.re "rrr"))) (re.++ (re.union (re.+ (str.to.re "ss")) (re.+ (str.to.re "ttt"))) (re.++ (re.+ (re.+ (str.to.re "u"))) (re.++ (re.+ (re.union (str.to.re "vvv") (str.to.re "ww"))) (re.++ (re.* (re.union (str.to.re "xx") (str.to.re "y"))) (re.++ (re.* (re.* (str.to.re "zzz"))) (re.++ (re.union (re.union (str.to.re "AA") (str.to.re "BBB")) (re.union (str.to.re "CC") (str.to.re "DDD"))) (re.++ (re.* (re.+ (str.to.re "EE"))) (re.++ (re.* (re.* (str.to.re "F"))) (re.++ (re.union (re.* (str.to.re "G")) (re.* (str.to.re "HH"))) (re.++ (re.+ (re.* (str.to.re "II"))) (re.++ (re.union (re.union (str.to.re "JJ") (str.to.re "KKK")) (re.union (str.to.re "LLL") (str.to.re "MM"))) (re.++ (re.+ (re.+ (str.to.re "NN"))) (re.++ (re.+ (re.union (str.to.re "OO") (str.to.re "P"))) (re.++ (re.union (re.+ (str.to.re "Q")) (re.+ (str.to.re "RRR"))) (re.++ (re.union (re.* (str.to.re "SSS")) (re.* (str.to.re "T"))) (re.++ (re.* (re.+ (str.to.re "U"))) (re.++ (re.union (re.+ (str.to.re "V")) (re.+ (str.to.re "WWW"))) (re.++ (re.+ (re.* (str.to.re "XX"))) (re.++ (re.* (re.+ (str.to.re "YYY"))) (re.++ (re.+ (re.union (str.to.re "ZZ") (str.to.re "!!!"))) (re.++ (re.union (re.+ (str.to.re """")) (re.+ (str.to.re "##"))) (re.++ (re.* (re.+ (str.to.re "$"))) (re.++ (re.+ (re.union (str.to.re "%%") (str.to.re "&&&"))) (re.++ (re.* (re.union (str.to.re "'") (str.to.re "("))) (re.++ (re.union (re.+ (str.to.re ")))")) (re.+ (str.to.re "**"))) (re.++ (re.+ (re.union (str.to.re "++") (str.to.re ","))) (re.++ (re.union (re.+ (str.to.re "--")) (re.+ (str.to.re ".."))) (re.++ (re.+ (re.* (str.to.re "///"))) (re.++ (re.union (re.union (str.to.re ":") (str.to.re ";;;")) (re.union (str.to.re "<") (str.to.re "=="))) (re.++ (re.* (re.union (str.to.re ">>") (str.to.re "?"))) (re.++ (re.union (re.* (str.to.re "@@")) (re.* (str.to.re "[[["))) (re.++ (re.+ (re.+ (str.to.re "\\\\"))) (re.++ (re.union (re.+ (str.to.re "]]]")) (re.+ (str.to.re "^"))) (re.++ (re.+ (re.union (str.to.re "_") (str.to.re "`"))) (re.++ (re.+ (re.union (str.to.re "{{") (str.to.re "||"))) (re.++ (re.* (re.+ (str.to.re "}"))) (re.++ (re.union (re.+ (str.to.re "~~~")) (re.+ (str.to.re "000"))) (re.++ (re.* (re.union (str.to.re "111") (str.to.re "22"))) (re.++ (re.union (re.* (str.to.re "3")) (re.* (str.to.re "44"))) (re.++ (re.* (re.* (str.to.re "555"))) (re.++ (re.* (re.* (str.to.re "6"))) (re.++ (re.* (re.union (str.to.re "777") (str.to.re "888"))) (re.++ (re.union (re.union (str.to.re "9") (str.to.re "aa")) (re.union (str.to.re "bbb") (str.to.re "ccc"))) (re.++ (re.* (re.+ (str.to.re "ddd"))) (re.++ (re.union (re.+ (str.to.re "eee")) (re.+ (str.to.re "ff"))) (re.union (re.+ (str.to.re "gg")) (re.+ (str.to.re "h"))))))))))))))))))))))))))))))))))))))))))))))))))))))))))))))))))
(check-sat)